c ind 1 3 5 7 9 0
c ind 11 13 15 17 19 0
c ind 21 23 25 27 29 0
c ind 31 33 35 37 39 0
c ind 41 43 45 47 49 0
c ind 51 53 55 57 59 0
c ind 61 63 65 67 69 0
c ind 71 73 75 77 79 0
c ind 81 83 85 87 89 0
c ind 91 93 95 97 99 0
c ind 101 103 105 107 109 0
c ind 111 113 115 117 119 0
c ind 121 123 125 127 129 0
c ind 131 133 135 0
p cnf 544 1020
137 0
-341 0
-137 -49 0
-137 -50 0
-138 0
-342 0
-138 -49 0
-138 -50 0
-139 0
-343 0
-140 0
-344 0
-140 -45 0
-140 -46 0
-141 0
-345 0
-141 -45 0
-141 -46 0
-142 0
-346 0
-143 0
-347 0
-143 -29 0
-143 -30 0
-144 0
-348 0
-144 -29 0
-144 -30 0
-145 0
-349 0
-146 0
-350 0
-146 7 0
-146 8 0
-147 0
-351 0
-147 -7 0
-147 -8 0
-148 0
-352 0
-149 0
-353 0
-149 35 0
-149 36 0
-150 0
-354 0
-150 -35 0
-150 -36 0
-151 0
-355 0
-152 0
-356 0
-152 103 0
-152 104 0
-153 0
-357 0
-153 -103 0
-153 -104 0
-154 0
-358 0
-155 0
-359 0
-155 9 0
-155 10 0
-156 0
-360 0
-156 -9 0
-156 -10 0
-157 0
-361 0
-158 0
-362 0
-158 115 0
-158 116 0
-159 0
-363 0
-159 -115 0
-159 -116 0
-160 0
-364 0
-161 0
-365 0
-161 117 0
-161 118 0
-162 0
-366 0
-162 -117 0
-162 -118 0
-163 0
-367 0
-164 0
-368 0
-164 125 0
-164 126 0
-165 0
-369 0
-165 -125 0
-165 -126 0
-166 0
-370 0
-167 0
-371 0
-167 67 0
-167 68 0
-168 0
-372 0
-168 -67 0
-168 -68 0
-169 0
-373 0
-170 0
-374 0
-170 47 0
-170 48 0
-171 0
-375 0
-171 -47 0
-171 -48 0
-172 0
-376 0
-173 0
-377 0
-173 25 0
-173 26 0
-174 0
-378 0
-174 -25 0
-174 -26 0
-175 0
-379 0
-69 25 26 0
-70 25 26 0
-69 -70 -25 26 0
-176 -25 0
-176 -26 0
25 26 176 0
-380 0
-176 -25 -69 25 0
-176 -25 -25 69 0
-176 -25 -70 26 0
-176 -25 -26 70 0
-177 176 0
-177 -25 0
-177 -26 0
-176 25 26 177 0
-381 0
-177 -69 0
-177 -70 0
-178 0
-382 0
-179 0
-383 0
-179 41 0
-179 42 0
-180 0
-384 0
-180 -41 0
-180 -42 0
-181 0
-385 0
-182 0
-386 0
-182 1 0
-182 2 0
-183 0
-387 0
-183 -1 0
-183 -2 0
-184 0
-388 0
-185 0
-389 0
-185 105 0
-185 106 0
-186 0
-390 0
-186 -105 0
-186 -106 0
-187 0
-391 0
-188 0
-392 0
-188 59 0
-188 60 0
-189 0
-393 0
-189 -59 0
-189 -60 0
-190 0
-394 0
-191 0
-395 0
-191 -123 0
-191 -124 0
-192 0
-396 0
-192 -123 0
-192 -124 0
-193 0
-397 0
-194 0
-398 0
-194 79 0
-194 80 0
-195 0
-399 0
-195 -79 0
-195 -80 0
-196 0
-400 0
-131 79 80 0
-132 79 80 0
-131 -132 -79 80 0
-197 -79 0
-197 -80 0
79 80 197 0
-401 0
-197 -79 -131 79 0
-197 -79 -79 131 0
-197 -79 -132 80 0
-197 -79 -80 132 0
-198 197 0
-198 -79 0
-198 -80 0
-197 79 80 198 0
-402 0
-198 -131 0
-198 -132 0
-199 0
-403 0
-200 0
-404 0
-200 23 0
-200 24 0
-201 0
-405 0
-201 -23 0
-201 -24 0
-202 0
-406 0
-55 23 24 0
-56 23 24 0
-55 -56 -23 24 0
-203 -23 0
-203 -24 0
23 24 203 0
-407 0
-203 -23 -55 23 0
-203 -23 -23 55 0
-203 -23 -56 24 0
-203 -23 -24 56 0
-204 203 0
-204 -23 0
-204 -24 0
-203 23 24 204 0
-408 0
-204 -55 0
-204 -56 0
-205 0
-409 0
-206 0
-410 0
-206 -57 0
-206 -58 0
-207 0
-411 0
-207 -57 0
-207 -58 0
-208 0
-412 0
-65 57 58 0
-66 57 58 0
-65 -66 -57 58 0
-209 -57 0
-209 -58 0
57 58 209 0
-413 0
-209 -57 -65 0
-209 -57 -66 0
-210 209 0
-210 -57 0
-210 -58 0
-209 57 58 210 0
-414 0
-210 -65 0
-210 -66 0
-211 0
-415 0
-85 57 58 0
-86 57 58 0
-85 -86 -57 58 0
-212 -57 0
-212 -58 0
57 58 212 0
-416 0
-212 -57 -85 0
-212 -57 -86 0
-213 212 0
-213 -57 0
-213 -58 0
-212 57 58 213 0
-417 0
-213 -85 0
-213 -86 0
-214 0
-418 0
-15 57 58 0
-16 57 58 0
-15 -16 -57 58 0
-215 -57 0
-215 -58 0
57 58 215 0
-419 0
-215 -57 -15 0
-215 -57 -16 0
-216 215 0
-216 -57 0
-216 -58 0
-215 57 58 216 0
-420 0
-216 -15 0
-216 -16 0
-217 0
-421 0
-43 57 58 0
-44 57 58 0
-43 -44 -57 58 0
-218 -57 0
-218 -58 0
57 58 218 0
-422 0
-218 -57 -43 0
-218 -57 -44 0
-219 218 0
-219 -57 0
-219 -58 0
-218 57 58 219 0
-423 0
-219 -43 0
-219 -44 0
-220 0
-424 0
-221 0
-425 0
-221 129 0
-221 130 0
-222 0
-426 0
-222 -129 0
-222 -130 0
-223 0
-427 0
-224 0
-428 0
-224 73 0
-224 74 0
-225 0
-429 0
-225 -73 0
-225 -74 0
-226 0
-430 0
-227 0
-431 0
-227 99 0
-227 100 0
-228 0
-432 0
-228 -99 0
-228 -100 0
-229 0
-433 0
-51 99 100 0
-52 99 100 0
-51 -52 -99 100 0
-230 -99 0
-230 -100 0
99 100 230 0
-434 0
-230 -99 -51 99 0
-230 -99 -99 51 0
-230 -99 -52 100 0
-230 -99 -100 52 0
-231 230 0
-231 -99 0
-231 -100 0
-230 99 100 231 0
-435 0
-231 -51 0
-231 -52 0
-232 0
-436 0
-233 0
-437 0
-233 37 0
-233 38 0
-234 0
-438 0
-234 -37 0
-234 -38 0
-235 0
-439 0
-236 0
-440 0
-236 5 0
-236 6 0
-237 0
-441 0
-237 -5 0
-237 -6 0
-238 0
-442 0
-239 0
-443 0
-239 89 0
-239 90 0
-240 0
-444 0
-240 -89 0
-240 -90 0
-241 0
-445 0
-242 0
-446 0
-242 -27 0
-242 -28 0
-243 0
-447 0
-243 -27 0
-243 -28 0
-244 0
-448 0
-111 27 28 0
-112 27 28 0
-111 -112 -27 28 0
-245 -27 0
-245 -28 0
27 28 245 0
-449 0
-245 -27 -111 0
-245 -27 -112 0
-246 245 0
-246 -27 0
-246 -28 0
-245 27 28 246 0
-450 0
-246 -111 0
-246 -112 0
-247 0
-451 0
-248 0
-452 0
-248 121 0
-248 122 0
-249 0
-453 0
-249 -121 0
-249 -122 0
-250 0
-454 0
-251 0
-455 0
-251 -3 0
-251 -4 0
-252 0
-456 0
-252 -3 0
-252 -4 0
-253 0
-457 0
-254 0
-458 0
-254 71 0
-254 72 0
-255 0
-459 0
-255 -71 0
-255 -72 0
-256 0
-460 0
-257 0
-461 0
-257 93 0
-257 94 0
-258 0
-462 0
-258 -93 0
-258 -94 0
-259 0
-463 0
-260 0
-464 0
-260 87 0
-260 88 0
-261 0
-465 0
-261 -87 0
-261 -88 0
-262 0
-466 0
-263 0
-467 0
-263 17 0
-263 18 0
-264 0
-468 0
-264 -17 0
-264 -18 0
-265 0
-469 0
-127 17 18 0
-128 17 18 0
-127 -128 -17 18 0
-266 -17 0
-266 -18 0
17 18 266 0
-470 0
-266 -17 -127 17 0
-266 -17 -17 127 0
-266 -17 -128 18 0
-266 -17 -18 128 0
-267 266 0
-267 -17 0
-267 -18 0
-266 17 18 267 0
-471 0
-267 -127 0
-267 -128 0
-268 0
-472 0
-269 0
-473 0
-269 109 0
-269 110 0
-270 0
-474 0
-270 -109 0
-270 -110 0
-271 0
-475 0
-272 0
-476 0
-272 83 0
-272 84 0
-273 0
-477 0
-273 -83 0
-273 -84 0
-274 0
-478 0
-275 0
-479 0
-275 135 0
-275 136 0
-276 0
-480 0
-276 -135 0
-276 -136 0
-277 0
-481 0
-278 0
-482 0
-278 13 0
-278 14 0
-279 0
-483 0
-279 -13 0
-279 -14 0
-280 0
-484 0
-31 13 14 0
-32 13 14 0
-31 -32 -13 14 0
-281 -13 0
-281 -14 0
13 14 281 0
-485 0
-281 -13 -31 0
-281 -13 -32 0
-282 281 0
-282 -13 0
-282 -14 0
-281 13 14 282 0
-486 0
-282 -31 0
-282 -32 0
-283 0
-487 0
-61 31 32 0
-62 31 32 0
-61 -62 -31 32 0
-284 -31 0
-284 -32 0
31 32 284 0
-488 0
-284 -31 -61 0
-284 -31 -62 0
-285 284 0
-285 -31 0
-285 -32 0
-284 31 32 285 0
-489 0
-285 -61 0
-285 -62 0
-286 0
-490 0
-39 31 32 0
-40 31 32 0
-39 -40 -31 32 0
-287 -31 0
-287 -32 0
31 32 287 0
-491 0
-287 -31 -39 0
-287 -31 -40 0
-288 287 0
-288 -31 0
-288 -32 0
-287 31 32 288 0
-492 0
-288 -39 0
-288 -40 0
-289 0
-493 0
-101 13 14 0
-102 13 14 0
-101 -102 -13 14 0
-290 -13 0
-290 -14 0
13 14 290 0
-494 0
-290 -13 -101 0
-290 -13 -102 0
-291 290 0
-291 -13 0
-291 -14 0
-290 13 14 291 0
-495 0
-291 -101 0
-291 -102 0
-292 0
-496 0
-119 13 14 0
-120 13 14 0
-119 -120 -13 14 0
-293 -13 0
-293 -14 0
13 14 293 0
-497 0
-293 -13 -119 0
-293 -13 -120 0
-294 293 0
-294 -13 0
-294 -14 0
-293 13 14 294 0
-498 0
-294 -119 0
-294 -120 0
-295 0
-499 0
-107 119 120 0
-108 119 120 0
-107 -108 -119 120 0
-296 -119 0
-296 -120 0
119 120 296 0
-500 0
-296 -119 -107 0
-296 -119 -108 0
-297 296 0
-297 -119 0
-297 -120 0
-296 119 120 297 0
-501 0
-297 -107 0
-297 -108 0
-298 0
-502 0
-21 119 120 0
-22 119 120 0
-21 -22 -119 120 0
-299 -119 0
-299 -120 0
119 120 299 0
-503 0
-299 -119 -21 0
-299 -119 -22 0
-300 299 0
-300 -119 0
-300 -120 0
-299 119 120 300 0
-504 0
-300 -21 0
-300 -22 0
-301 0
-505 0
-11 119 120 0
-12 119 120 0
-11 -12 -119 120 0
-302 -119 0
-302 -120 0
119 120 302 0
-506 0
-302 -119 -11 0
-302 -119 -12 0
-303 302 0
-303 -119 0
-303 -120 0
-302 119 120 303 0
-507 0
-303 -11 0
-303 -12 0
-304 0
-508 0
-81 11 12 0
-82 11 12 0
-81 -82 -11 12 0
-305 -11 0
-305 -12 0
11 12 305 0
-509 0
-305 -11 -81 0
-305 -11 -82 0
-306 305 0
-306 -11 0
-306 -12 0
-305 11 12 306 0
-510 0
-306 -81 0
-306 -82 0
-307 0
-511 0
-63 81 82 0
-64 81 82 0
-63 -64 -81 82 0
-308 -81 0
-308 -82 0
81 82 308 0
-512 0
-308 -81 -63 0
-308 -81 -64 0
-309 308 0
-309 -81 0
-309 -82 0
-308 81 82 309 0
-513 0
-309 -63 0
-309 -64 0
-310 0
-514 0
-75 13 14 0
-76 13 14 0
-75 -76 -13 14 0
-311 -13 0
-311 -14 0
13 14 311 0
-515 0
-311 -13 -75 0
-311 -13 -76 0
-312 311 0
-312 -13 0
-312 -14 0
-311 13 14 312 0
-516 0
-312 -75 0
-312 -76 0
-313 0
-517 0
-77 13 14 0
-78 13 14 0
-77 -78 -13 14 0
-314 -13 0
-314 -14 0
13 14 314 0
-518 0
-314 -13 -77 0
-314 -13 -78 0
-315 314 0
-315 -13 0
-315 -14 0
-314 13 14 315 0
-519 0
-315 -77 0
-315 -78 0
-316 0
-520 0
-33 13 14 0
-34 13 14 0
-33 -34 -13 14 0
317 0
-521 0
-317 -13 -33 0
-317 -13 -34 0
-318 317 0
-318 -13 0
-318 -14 0
-317 13 14 318 0
-522 0
-318 -33 0
-318 -34 0
-319 0
-523 0
-95 13 14 0
-96 13 14 0
-95 -96 -13 14 0
320 0
-524 0
-320 -13 -95 0
-320 -13 -96 0
-321 320 0
-321 -13 0
-321 -14 0
-320 13 14 321 0
-525 0
-321 -95 0
-321 -96 0
-322 0
-526 0
-97 13 14 0
-98 13 14 0
-97 -98 -13 14 0
323 0
-527 0
-323 -13 -97 0
-323 -13 -98 0
-324 323 0
-324 -13 0
-324 -14 0
-323 13 14 324 0
-528 0
-324 -97 0
-324 -98 0
-325 0
-529 0
-326 0
-530 0
-326 19 0
-326 20 0
-327 0
-531 0
-327 -19 0
-327 -20 0
-328 0
-532 0
-329 0
-533 0
-329 133 0
-329 134 0
-330 0
-534 0
-330 -133 0
-330 -134 0
-331 0
-535 0
-332 0
-536 0
-332 53 0
-332 54 0
-333 0
-537 0
-333 -53 0
-333 -54 0
-334 0
-538 0
-335 0
-539 0
-335 91 0
-335 92 0
-336 0
-540 0
-336 -91 0
-336 -92 0
-337 0
-541 0
-338 0
-542 0
-338 113 0
-338 114 0
-339 0
-543 0
-339 -113 0
-339 -114 0
-340 0
-544 0
-49 50 0
-45 46 0
-29 30 0
-7 8 0
-35 36 0
-103 104 0
-9 10 0
-115 116 0
-117 118 0
-125 126 0
-67 68 0
-47 48 0
-25 26 0
-69 70 0
-41 42 0
-1 2 0
-105 106 0
-59 60 0
-123 124 0
-79 80 0
-131 132 0
-23 24 0
-55 56 0
-57 58 0
-65 66 0
-85 86 0
-15 16 0
-43 44 0
-129 130 0
-73 74 0
-99 100 0
-51 52 0
-37 38 0
-5 6 0
-89 90 0
-27 28 0
-111 112 0
-121 122 0
-3 4 0
-71 72 0
-93 94 0
-87 88 0
-17 18 0
-127 128 0
-109 110 0
-83 84 0
-135 136 0
-13 14 0
-31 32 0
-61 62 0
-39 40 0
-101 102 0
-119 120 0
-107 108 0
-21 22 0
-11 12 0
-81 82 0
-63 64 0
-75 76 0
-77 78 0
-33 34 0
-95 96 0
-97 98 0
-19 20 0
-133 134 0
-53 54 0
-91 92 0
-113 114 0
1 -2 0
3 -4 0
5 -6 0
7 -8 0
9 -10 0
11 -12 0
13 -14 0
15 -16 0
17 -18 0
19 -20 0
21 -22 0
23 -24 0
25 -26 0
27 -28 0
29 -30 0
31 -32 0
33 -34 0
35 -36 0
37 -38 0
39 -40 0
41 -42 0
43 -44 0
45 -46 0
47 -48 0
49 -50 0
51 -52 0
53 -54 0
55 -56 0
57 -58 0
59 -60 0
61 -62 0
63 -64 0
65 -66 0
67 -68 0
69 -70 0
71 -72 0
73 -74 0
75 -76 0
77 -78 0
79 -80 0
81 -82 0
83 -84 0
85 -86 0
87 -88 0
89 -90 0
91 -92 0
93 -94 0
95 -96 0
97 -98 0
99 -100 0
101 -102 0
103 -104 0
105 -106 0
107 -108 0
109 -110 0
111 -112 0
113 -114 0
115 -116 0
117 -118 0
119 -120 0
121 -122 0
123 -124 0
125 -126 0
127 -128 0
129 -130 0
131 -132 0
133 -134 0
135 -136 0
